NAME: custom35
TYPE: TSP
COMMENT: 
DIMENSION: 35
NODE_COORD_SECTION
1 1173000 385000
2 1165000 350000
3 1146000 424000
4 1108000 440000
5 1079000 441000
6 1040000 444000
7 932000 436000
8 907000 426000
9 845000 404000
10 810000 390000
11 775000 363000
12 758000 343000
13 743000 318000
14 744000 276000
15 774000 242000
16 830000 231000
17 890000 229000
18 996000 226000
19 1080000 256000
20 1138000 300000
21 987000 443000
22 944358 558044
23 888963 611131
24 723932 731153
25 645456 433406
26 767787 446100
27 286543 404554
28 313087 404554
29 306162 552274
30 390409 530034
31 026880 319154
32 306162 743848
33 723932 963120
34 989366 867332
35 1317120 420711
EOF